
(set-logic HORN)
(define-fun Z_1923 () Int 0)
(define-fun S_425 ((x Int)) Int (+ x 1))
(declare-datatypes ((Bool_317 0)) (((false_317) (true_317))))
(declare-fun diseqBool_147 (Bool_317 Bool_317) Bool)
(declare-fun isfalse_147 (Bool_317) Bool)
(declare-fun istrue_147 (Bool_317) Bool)
(assert (isfalse_147 false_317))
(assert (istrue_147 true_317))
(assert (diseqBool_147 false_317 true_317))
(assert (diseqBool_147 true_317 false_317))
(declare-fun and_317 (Bool_317 Bool_317 Bool_317) Bool)
(declare-fun or_324 (Bool_317 Bool_317 Bool_317) Bool)
(declare-fun hence_317 (Bool_317 Bool_317 Bool_317) Bool)
(declare-fun not_322 (Bool_317 Bool_317) Bool)
(assert (and_317 false_317 false_317 false_317))
(assert (and_317 false_317 true_317 false_317))
(assert (and_317 false_317 false_317 true_317))
(assert (and_317 true_317 true_317 true_317))
(assert (or_324 false_317 false_317 false_317))
(assert (or_324 true_317 true_317 false_317))
(assert (or_324 true_317 false_317 true_317))
(assert (or_324 true_317 true_317 true_317))
(assert (hence_317 true_317 false_317 false_317))
(assert (hence_317 false_317 true_317 false_317))
(assert (hence_317 true_317 false_317 true_317))
(assert (hence_317 true_317 true_317 true_317))
(assert (not_322 true_317 false_317))
(assert (not_322 false_317 true_317))
(declare-fun diseqInt (Int Int) Bool)
(declare-fun projS_151 (Int Int) Bool)
(declare-fun isZ_392 (Int) Bool)
(declare-fun isS_392 (Int) Bool)
(assert (forall ((x_54104 Int))
	(projS_151 x_54104 (S_425 x_54104))))
(assert (isZ_392 Z_1923))
(assert (forall ((x_54106 Int))
	(isS_392 (S_425 x_54106))))
(assert (forall ((x_54107 Int))
	(diseqInt Z_1923 (S_425 x_54107))))
(assert (forall ((x_54108 Int))
	(diseqInt (S_425 x_54108) Z_1923)))
(assert (forall ((x_54109 Int) (x_54110 Int))
	(=> (diseqInt x_54109 x_54110) (diseqInt (S_425 x_54109) (S_425 x_54110)))))
(declare-fun even_1 (Bool_317 Int) Bool)
(assert (forall ((x_54091 Bool_317) (z_1924 Int))
	(=> (even_1 x_54091 z_1924) (even_1 x_54091 (S_425 (S_425 z_1924))))))
(assert (even_1 false_317 (S_425 Z_1923)))
(assert (even_1 true_317 Z_1923))
(declare-fun x_54088 (Int Int Int) Bool)
(assert (forall ((x_54096 Int) (z_1925 Int) (y_2159 Int))
	(=> (x_54088 x_54096 z_1925 y_2159) (x_54088 (S_425 x_54096) (S_425 z_1925) y_2159))))
(assert (forall ((x_54097 Int))
	(x_54088 x_54097 Z_1923 x_54097)))
(assert (forall ((x_54098 Int) (x_54090 Int))
	(=> (and true (x_54088 x_54098 x_54090 x_54090) (even_1 false_317 x_54098)) false)))
(check-sat)
